24 4 52566
4 19 26533
19 27 17774
27 40 17541
40 22 29078
22 28 41179
28 13 6411
13 7 23211
7 18 20722
18 2 16361
2 21 11546
21 1 6578
1 10 6947
10 35 6355
35 11 5412
11 8 17581
8 15 26227
15 16 36816
16 3 71701
3 14 30026
14 17 42391
17 9 102410
9 6 47658
6 36 22446
36 29 16895
29 38 745
38 23 7449
23 31 11949
31 20 21913
20 26 24941
26 37 14546
37 30 941
30 39 6375
39 25 4093
25 34 30137
34 33 36786
33 12 3967
12 32 37145
32 5 3290
5 24 63665
